Route #1: 103 87 144 18 139 27 108 102 100 135 150 98 45 81 164 34 65 110 101 36 105 80 124 63
Route #2: 54 23 154 132 142 19 50 40 31 24 133 70 141 39 11 82 120 53 112 59 95 158 60 76 42 152
Route #3: 157 9 123 35 26 165 78 74 33 106 166 94 90 41 138 128 62 162 68 48
Route #4: 99 5
Route #5: 121 79 3 130 143 71 113 21 149 131 151 38 14 15 119 134 86
Route #6: 67 89 6 7 25 93 118 47 126 127 61 58 56 155 69 83 22 73 137
Route #7: 85 125 43 117 147 129 145 114 136 37 84 146 51 10 72 32 28 29 2 16 109 75 160 4 55 92 30 44
Route #8: 46 159 17 96 115 97 148 116 153 8 163 88 111 122 1 13 77 57 12 104 64 107 49 91 161 20 66 156 52 140
Cost 17258.000000